proyfinal/src/viki/013/experimentInOfficeAgust.take6.output/8313667d-3f27-43f9-acd8-191425f7160e.als.dat
{'cnf.clauses': '118081',
 'cnf.totvars': '69608',
 'conflict literals': '52',
 'conflicts': '24',
 'decisions': '8688',
 'memused.mb': '15.79',
 'outcome': 'UNSAT',
 'propagations': '35214',
 'restarts': '1',
 'solver.msecs': 30,
 'task.msecs': 140}
