proyfinal/src/viki/013/experimentInOfficeAgust.take6.output/8313667d-3f27-43f9-acd8-191425f7160e.als.out
Reading from standard input... Use '--help' for help.
============================[ Problem Statistics ]=============================
|                                                                             |
|  Number of variables:         69608                                         |
|  Number of clauses:          118081                                         |
|  Parse time:                   0.02 s                                       |
|                                                                             |
============================[ Search Statistics ]==============================
| Conflicts |          ORIGINAL         |          LEARNT          | Progress |
|           |    Vars  Clauses Literals |    Limit  Clauses Lit/Cl |          |
===============================================================================
===============================================================================
restarts              : 1
conflicts             : 24             (799 /sec)
decisions             : 8688           (0.00 % random) (289272 /sec)
propagations          : 35214          (1172471 /sec)
conflict literals     : 52             (10.34 % deleted)
Memory used           : 15.79 MB
CPU time              : 0.030034 s

UNSATISFIABLE
